networks/zoo_102_2044/zoo_102_2044-lower.txt
Number of groups: 55
Flow 6: {1 7 0} {7 58 0} 
Flow 27: {29 30 0} {30 81 0} 
Flow 52: {2 1 0} {1 5 0} {5 56 0} 
Flow 140: {3 47 0} {47 98 0} 
Flow 175: {4 47 0} {47 44 0} {44 46 0} {46 6 0} {6 34 0} {34 85 0} 
Flow 234: {5 1 0} {1 44 0} {44 45 0} {45 96 0} 
Flow 249: {6 10 0} {10 61 0} 
Flow 275: {6 37 0} {37 88 0} 
Flow 277: {6 39 0} {39 90 0} 
Flow 279: {6 41 0} {41 92 0} 
Flow 296: {7 1 0} {1 8 0} {8 59 0} 
Flow 338: {8 1 0} {1 52 0} 
Flow 357: {32 21 0} {21 72 0} 
Flow 394: {9 6 0} 
Flow 400: {10 6 0} 
Flow 449: {11 44 0} {44 47 0} {47 3 0} {3 43 0} {43 94 0} 
Flow 481: {46 45 0} {45 26 0} {26 77 0} 
Flow 485: {12 32 0} {32 46 0} {46 29 0} {29 31 0} {31 82 0} 
Flow 520: {13 32 0} {32 16 0} {16 67 0} 
Flow 575: {14 25 0} {25 76 0} 
Flow 621: {15 24 0} {24 75 0} 
Flow 705: {17 32 0} {32 12 0} {12 63 0} 
Flow 755: {18 32 0} {32 20 0} {20 71 0} 
Flow 794: {19 32 0} {32 13 0} {13 64 0} 
Flow 838: {20 32 0} {32 19 0} {19 70 0} 
Flow 871: {21 32 0} {32 15 0} {15 66 0} 
Flow 925: {22 29 0} {29 80 0} 
Flow 968: {23 29 0} 
Flow 992: {24 15 0} {15 32 0} {32 83 0} 
Flow 1023: {25 14 0} {14 32 0} {32 18 0} {18 69 0} 
Flow 1079: {26 45 0} {45 48 0} {48 51 0} {51 102 0} 
Flow 1092: {27 16 0} {16 32 0} {32 14 0} {14 65 0} 
Flow 1142: {28 29 0} {29 23 0} {23 74 0} 
Flow 1188: {29 28 0} {28 79 0} 
Flow 1239: {30 29 0} {29 46 0} {46 97 0} 
Flow 1259: {31 29 0} 
Flow 1329: {33 6 0} 
Flow 1345: {34 6 0} {6 9 0} {9 60 0} 
Flow 1386: {35 32 0} {32 17 0} {17 68 0} 
Flow 1429: {36 6 0} {6 40 0} {40 91 0} 
Flow 1461: {37 6 0} {6 36 0} {36 87 0} 
Flow 1491: {38 6 0} {6 33 0} {33 84 0} 
Flow 1521: {39 6 0} {6 46 0} {46 44 0} {44 95 0} 
Flow 1547: {40 6 0} {6 38 0} {38 89 0} 
Flow 1559: {41 6 0} {6 57 0} 
Flow 1672: {43 42 0} {42 93 0} 
Flow 1677: {42 48 0} {48 99 0} 
Flow 1691: {44 11 0} {11 62 0} 
Flow 1799: {29 22 0} {22 73 0} 
Flow 1830: {47 4 0} {4 55 0} 
Flow 1958: {49 46 0} {46 32 0} {32 35 0} {35 86 0} 
Flow 1974: {50 51 0} {51 48 0} {48 45 0} {45 44 0} {44 1 0} {1 2 0} {2 53 0} 
Flow 1975: {48 42 0} {42 43 0} {43 3 0} {3 54 0} 
Flow 1996: {45 46 0} {46 49 0} {49 100 0} 
Flow 2044: {51 50 0} {50 101 0} 
Time taken running everything: 8 seconds
