networks/zoo_102_2044/zoo_102_2044-lower.sol
<?xml version = "1.0" encoding="UTF-8" standalone="yes"?>
<CPLEXSolution version="1.2">
 <header
   problemName="networks/zoo_102_2044/zoo_102_2044-lower.lp"
   solutionName="incumbent"
   solutionIndex="-1"
   objectiveValue="50"
   solutionTypeValue="3"
   solutionTypeString="primal"
   solutionStatusValue="101"
   solutionStatusString="integer optimal solution"
   solutionMethodString="mip"
   primalFeasible="1"
   dualFeasible="1"
   MIPNodes="0"
   MIPIterations="0"
   writeLevel="3"/>
 <quality
   epInt="1.0000000000000001e-05"
   epRHS="9.9999999999999995e-07"
   maxIntInfeas="0"
   maxPrimalInfeas="0"
   maxX="1"
   maxSlack="1"/>
 <variables>
  <variable name="Y(1,2)" index="1" value="1"/>
  <variable name="Y(2,3)" index="103" value="1"/>
  <variable name="Y(3,4)" index="205" value="1"/>
  <variable name="Y(4,5)" index="307" value="1"/>
  <variable name="Y(5,6)" index="409" value="1"/>
  <variable name="Y(6,7)" index="511" value="1"/>
  <variable name="Y(7,8)" index="613" value="1"/>
  <variable name="Y(8,9)" index="715" value="1"/>
  <variable name="Y(9,10)" index="817" value="1"/>
  <variable name="Y(10,11)" index="919" value="1"/>
  <variable name="Y(11,12)" index="1021" value="1"/>
  <variable name="Y(12,13)" index="1123" value="1"/>
  <variable name="Y(13,14)" index="1225" value="1"/>
  <variable name="Y(14,15)" index="1327" value="1"/>
  <variable name="Y(15,16)" index="1429" value="1"/>
  <variable name="Y(16,17)" index="1531" value="1"/>
  <variable name="Y(17,18)" index="1633" value="1"/>
  <variable name="Y(18,19)" index="1735" value="1"/>
  <variable name="Y(19,20)" index="1837" value="1"/>
  <variable name="Y(20,21)" index="1939" value="1"/>
  <variable name="Y(21,23)" index="2042" value="1"/>
  <variable name="Y(22,24)" index="2144" value="1"/>
  <variable name="Y(23,25)" index="2246" value="1"/>
  <variable name="Y(24,26)" index="2348" value="1"/>
  <variable name="Y(25,28)" index="2451" value="1"/>
  <variable name="Y(26,29)" index="2553" value="1"/>
  <variable name="Y(27,30)" index="2655" value="1"/>
  <variable name="Y(28,31)" index="2757" value="1"/>
  <variable name="Y(29,32)" index="2859" value="1"/>
  <variable name="Y(30,33)" index="2961" value="1"/>
  <variable name="Y(31,34)" index="3063" value="1"/>
  <variable name="Y(32,35)" index="3165" value="1"/>
  <variable name="Y(33,36)" index="3267" value="1"/>
  <variable name="Y(34,37)" index="3369" value="1"/>
  <variable name="Y(35,38)" index="3471" value="1"/>
  <variable name="Y(36,39)" index="3573" value="1"/>
  <variable name="Y(37,40)" index="3675" value="1"/>
  <variable name="Y(38,41)" index="3777" value="1"/>
  <variable name="Y(39,42)" index="3879" value="1"/>
  <variable name="Y(40,43)" index="3981" value="1"/>
  <variable name="Y(41,44)" index="4083" value="1"/>
  <variable name="Y(42,45)" index="4185" value="1"/>
  <variable name="Y(43,46)" index="4287" value="1"/>
  <variable name="Y(44,47)" index="4389" value="1"/>
  <variable name="Y(45,48)" index="4491" value="1"/>
  <variable name="Y(46,49)" index="4593" value="1"/>
  <variable name="Y(47,50)" index="4695" value="1"/>
  <variable name="Y(48,51)" index="4797" value="1"/>
  <variable name="Y(49,1)" index="4848" value="1"/>
  <variable name="Y(261,22)" index="26281" value="1"/>
  <variable name="X(1,2,1)" index="206444" value="1"/>
  <variable name="X(1,5,4)" index="208491" value="1"/>
  <variable name="X(1,7,6)" index="210537" value="1"/>
  <variable name="X(1,8,7)" index="212582" value="1"/>
  <variable name="X(1,44,2)" index="214621" value="1"/>
  <variable name="X(1,52,49)" index="216712" value="1"/>
  <variable name="X(2,1,49)" index="218756" value="1"/>
  <variable name="X(2,53,1)" index="220752" value="1"/>
  <variable name="X(3,43,40)" index="222835" value="1"/>
  <variable name="X(3,47,97)" index="224936" value="1"/>
  <variable name="X(3,54,2)" index="226885" value="1"/>
  <variable name="X(4,47,145)" index="229072" value="1"/>
  <variable name="X(4,55,3)" index="230974" value="1"/>
  <variable name="X(5,1,193)" index="233208" value="1"/>
  <variable name="X(5,56,4)" index="235063" value="1"/>
  <variable name="X(6,9,8)" index="237111" value="1"/>
  <variable name="X(6,10,9)" index="239156" value="1"/>
  <variable name="X(6,33,30)" index="241221" value="1"/>
  <variable name="X(6,34,31)" index="243266" value="1"/>
  <variable name="X(6,36,33)" index="245312" value="1"/>
  <variable name="X(6,37,34)" index="247357" value="1"/>
  <variable name="X(6,38,35)" index="249402" value="1"/>
  <variable name="X(6,39,36)" index="251447" value="1"/>
  <variable name="X(6,40,37)" index="253492" value="1"/>
  <variable name="X(6,41,38)" index="255537" value="1"/>
  <variable name="X(6,46,241)" index="257784" value="1"/>
  <variable name="X(6,57,5)" index="259592" value="1"/>
  <variable name="X(7,1,290)" index="261921" value="1"/>
  <variable name="X(7,58,6)" index="263681" value="1"/>
  <variable name="X(8,1,338)" index="266057" value="1"/>
  <variable name="X(8,59,7)" index="267770" value="1"/>
  <variable name="X(9,6,386)" index="270193" value="1"/>
  <variable name="X(9,60,8)" index="271859" value="1"/>
  <variable name="X(10,6,400)" index="274295" value="1"/>
  <variable name="X(10,61,9)" index="275948" value="1"/>
  <variable name="X(11,44,410)" index="278393" value="1"/>
  <variable name="X(11,62,10)" index="280037" value="1"/>
  <variable name="X(12,32,458)" index="282529" value="1"/>
  <variable name="X(12,63,11)" index="284126" value="1"/>
  <variable name="X(13,32,506)" index="286665" value="1"/>
  <variable name="X(13,64,12)" index="288215" value="1"/>
  <variable name="X(14,25,23)" index="290270" value="1"/>
  <variable name="X(14,32,553)" index="292844" value="1"/>
  <variable name="X(14,65,13)" index="294348" value="1"/>
  <variable name="X(15,24,22)" index="296401" value="1"/>
  <variable name="X(15,32,600)" index="299023" value="1"/>
  <variable name="X(15,66,14)" index="300481" value="1"/>
  <variable name="X(16,32,648)" index="303159" value="1"/>
  <variable name="X(16,67,15)" index="304570" value="1"/>
  <variable name="X(17,32,695)" index="307294" value="1"/>
  <variable name="X(17,68,16)" index="308659" value="1"/>
  <variable name="X(18,32,737)" index="311424" value="1"/>
  <variable name="X(18,69,17)" index="312748" value="1"/>
  <variable name="X(19,32,783)" index="315558" value="1"/>
  <variable name="X(19,70,18)" index="316837" value="1"/>
  <variable name="X(20,32,824)" index="319687" value="1"/>
  <variable name="X(20,71,19)" index="320926" value="1"/>
  <variable name="X(21,32,857)" index="323808" value="1"/>
  <variable name="X(21,72,20)" index="325015" value="1"/>
  <variable name="X(22,29,905)" index="327944" value="1"/>
  <variable name="X(22,73,261)" index="329344" value="1"/>
  <variable name="X(23,29,942)" index="332069" value="1"/>
  <variable name="X(23,74,21)" index="333192" value="1"/>
  <variable name="X(24,15,972)" index="336187" value="1"/>
  <variable name="X(24,75,22)" index="337281" value="1"/>
  <variable name="X(25,14,1008)" index="340311" value="1"/>
  <variable name="X(25,76,23)" index="341370" value="1"/>
  <variable name="X(26,45,1044)" index="344435" value="1"/>
  <variable name="X(26,77,24)" index="345459" value="1"/>
  <variable name="X(27,16,1080)" index="348559" value="1"/>
  <variable name="X(28,29,1122)" index="350645" value="1"/>
  <variable name="X(28,79,25)" index="351592" value="1"/>
  <variable name="X(29,22,261)" index="353872" value="1"/>
  <variable name="X(29,23,21)" index="355676" value="1"/>
  <variable name="X(29,28,25)" index="357724" value="1"/>
  <variable name="X(29,30,27)" index="359770" value="1"/>
  <variable name="X(29,31,28)" index="361815" value="1"/>
  <variable name="X(29,46,905)" index="364736" value="1"/>
  <variable name="X(29,80,26)" index="365901" value="1"/>
  <variable name="X(30,29,1210)" index="369129" value="1"/>
  <variable name="X(30,81,27)" index="369990" value="1"/>
  <variable name="X(31,29,1245)" index="373252" value="1"/>
  <variable name="X(31,82,28)" index="374079" value="1"/>
  <variable name="X(32,12,11)" index="376106" value="1"/>
  <variable name="X(32,13,12)" index="378151" value="1"/>
  <variable name="X(32,14,13)" index="380196" value="1"/>
  <variable name="X(32,15,14)" index="382241" value="1"/>
  <variable name="X(32,16,15)" index="384286" value="1"/>
  <variable name="X(32,17,16)" index="386331" value="1"/>
  <variable name="X(32,18,17)" index="388376" value="1"/>
  <variable name="X(32,19,18)" index="390421" value="1"/>
  <variable name="X(32,20,19)" index="392466" value="1"/>
  <variable name="X(32,21,20)" index="394511" value="1"/>
  <variable name="X(32,35,32)" index="396567" value="1"/>
  <variable name="X(32,46,458)" index="399037" value="1"/>
  <variable name="X(32,83,29)" index="400652" value="1"/>
  <variable name="X(33,6,1316)" index="403983" value="1"/>
  <variable name="X(33,84,30)" index="404741" value="1"/>
  <variable name="X(34,6,1340)" index="408095" value="1"/>
  <variable name="X(34,85,31)" index="408830" value="1"/>
  <variable name="X(35,32,1374)" index="412217" value="1"/>
  <variable name="X(35,86,32)" index="412919" value="1"/>
  <variable name="X(36,6,1404)" index="416335" value="1"/>
  <variable name="X(36,87,33)" index="417008" value="1"/>
  <variable name="X(37,6,1440)" index="420459" value="1"/>
  <variable name="X(37,88,34)" index="421097" value="1"/>
  <variable name="X(38,6,1474)" index="424581" value="1"/>
  <variable name="X(38,89,35)" index="425186" value="1"/>
  <variable name="X(39,6,1502)" index="428697" value="1"/>
  <variable name="X(39,90,36)" index="429275" value="1"/>
  <variable name="X(40,6,1528)" index="432811" value="1"/>
  <variable name="X(40,91,37)" index="433364" value="1"/>
  <variable name="X(41,6,1557)" index="436928" value="1"/>
  <variable name="X(41,92,38)" index="437453" value="1"/>
  <variable name="X(42,43,1071)" index="440530" value="1"/>
  <variable name="X(42,48,141)" index="441644" value="1"/>
  <variable name="X(42,93,39)" index="443586" value="1"/>
  <variable name="X(43,3,1585)" index="447176" value="1"/>
  <variable name="X(43,42,135)" index="447770" value="1"/>
  <variable name="X(43,94,40)" index="449719" value="1"/>
  <variable name="X(44,1,97)" index="451820" value="1"/>
  <variable name="X(44,11,10)" index="453777" value="1"/>
  <variable name="X(44,45,24)" index="455835" value="1"/>
  <variable name="X(44,46,5)" index="457860" value="1"/>
  <variable name="X(44,47,2)" index="459901" value="1"/>
  <variable name="X(44,95,41)" index="461984" value="1"/>
  <variable name="X(45,26,24)" index="464011" value="1"/>
  <variable name="X(45,44,1044)" index="467075" value="1"/>
  <variable name="X(45,46,1047)" index="469122" value="1"/>
  <variable name="X(45,48,39)" index="470158" value="1"/>
  <variable name="X(45,96,42)" index="472205" value="1"/>
  <variable name="X(46,6,5)" index="474212" value="1"/>
  <variable name="X(46,29,21)" index="476272" value="1"/>
  <variable name="X(46,32,11)" index="478306" value="1"/>
  <variable name="X(46,44,241)" index="480580" value="1"/>
  <variable name="X(46,45,265)" index="482648" value="1"/>
  <variable name="X(46,49,46)" index="484473" value="1"/>
  <variable name="X(46,97,43)" index="486514" value="1"/>
  <variable name="X(47,3,2)" index="488517" value="1"/>
  <variable name="X(47,4,3)" index="490562" value="1"/>
  <variable name="X(47,44,97)" index="492700" value="1"/>
  <variable name="X(47,98,44)" index="494691" value="1"/>
  <variable name="X(48,42,39)" index="496730" value="1"/>
  <variable name="X(48,45,1583)" index="500318" value="1"/>
  <variable name="X(48,51,47)" index="500826" value="1"/>
  <variable name="X(48,99,45)" index="502868" value="1"/>
  <variable name="X(49,46,1925)" index="506792" value="1"/>
  <variable name="X(49,100,46)" index="506957" value="1"/>
  <variable name="X(50,51,1974)" index="510929" value="1"/>
  <variable name="X(50,101,47)" index="511046" value="1"/>
  <variable name="X(51,48,1974)" index="515017" value="1"/>
  <variable name="X(51,50,47)" index="515134" value="1"/>
  <variable name="X(51,102,48)" index="517179" value="1"/>
 </variables>
</CPLEXSolution>
